848
1   1   0    184  0 94 95 97 92 37 100 14 44 38 86 17 84 0
1   2   0    122  0 61 16 91 85 93 5 0
1   3   0    198  0 98 42 43 15 41 23 67 39 73 2 57 87 13 6 60 0
1   4   0    32   0 83 8 18 0
1   5   0    195  0 45 46 36 47 19 48 82 7 52 89 96 59 99 0
2   1   0    90   0 76 50 30 70 69 27 28 0
2   2   0    188  0 77 3 79 78 34 35 65 66 71 9 81 33 0
2   3   0    187  0 51 20 32 90 63 64 49 11 62 10 88 31 1 0
2   4   0    77   0 12 53 58 40 26 0
2   5   0    185  0 54 4 21 72 74 22 75 56 25 55 24 29 68 80 0